c instance by G2
c solution = 1110100
c Known solution cost is 259 
p cnf 7 30
w 27 56 10 45 24 43 54
-5 -3 1 0
1 6 -2 0
5 4 -6 0
-3 1 2 0
-3 1 -7 0
-4 -6 2 0
-7 -3 -6 0
1 -3 6 0
5 4 -1 0
7 -5 1 0
-3 2 7 0
1 -4 -6 0
1 3 5 0
4 3 -1 0
-2 6 3 0
-7 6 -1 0
1 2 6 0
7 -6 -2 0
-6 -4 5 0
-7 -4 6 0
5 2 -7 0
7 -2 -4 0
1 5 6 0
4 2 6 0
-4 6 7 0
-3 1 6 0
3 -1 6 0
-7 -3 4 0
-7 -6 -3 0
6 -7 4 0
